JulietBench/Juliet_Based_Patch_Bench/FFmpeg/CWE-369-Divide-By-Zero/CVE_2018_14395_fa19fbcf712a6a6cc5a5cfdc3254a97b9bce6582/Resultmov_write_audio_tag_patch1EQ.smt2
; benchmark generated from python API
(set-info :status unknown)
(declare-fun R () (_ BitVec 32))
(declare-fun rdi () (_ BitVec 64))
(declare-fun rsi () (_ BitVec 64))
(declare-fun rdx () (_ BitVec 64))
(assert
 (let (($x105 (= (_ bv0 32) R)))
 (let ((?x6 ((_ extract 31 0) rdi)))
 (let (($x41 (and (distinct (_ bv2 32) ?x6) true)))
 (let (($x106 (and $x41 $x105)))
 (let (($x100 (= (_ bv2 32) R)))
 (let (($x15 (= (_ bv2 32) ?x6)))
 (let ((?x8 ((_ extract 31 0) rsi)))
 (let (($x70 (bvugt ?x8 (_ bv65535 32))))
 (let (($x101 (and $x70 $x15 $x100)))
 (let (($x54 (bvule ?x8 (_ bv65535 32))))
 (let ((?x10 ((_ extract 31 0) rdx)))
 (let (($x36 (= (_ bv0 32) ?x10)))
 (let (($x109 (and $x36 $x54 $x15 $x100)))
 (let (($x103 (= (_ bv1 32) R)))
 (let (($x49 (and (distinct (_ bv0 32) ?x10) true)))
 (let (($x108 (and $x49 $x54 $x15 $x103)))
 (let (($x110 (or $x108 $x109 $x101 $x106)))
 (let (($x104 (and $x54 $x15 $x103)))
 (let (($x107 (or $x101 $x104 $x106)))
 (and $x107 $x110)))))))))))))))))))))
(check-sat)
